
Gurobi 9.5.1 (linux64) logging started Tue 16 Aug 2022 05:31:42 PM MST

Set parameter LogFile to value "/home/local/ASUAD/kmajd1/NNRepLayer_v2/demos/walking_example/global_constraint_upper_10/repair_net/logs/opt_log_multi_40.log"
Gurobi Optimizer version 9.5.1 build v9.5.1rc2 (linux64)
Thread count: 48 physical cores, 96 logical processors, using up to 45 threads
Optimize a model with 16863 rows, 10742 columns and 130367 nonzeros
Model fingerprint: 0x51b798ca
Model has 149 quadratic objective terms
Variable types: 5974 continuous, 4768 integer (4768 binary)
Coefficient statistics:
  Matrix range     [2e-03, 2e+02]
  Objective range  [6e-04, 1e+00]
  QObjective range [1e-02, 1e-02]
  Bounds range     [1e+00, 1e+03]
  RHS range        [2e-04, 2e+02]

Concurrent MIP optimizer: 3 concurrent instances (15 threads per instance)

Presolve removed 490 rows and 96 columns
Presolve time: 0.18s
Presolved: 16373 rows, 10646 columns, 129685 nonzeros
Presolved model has 149 quadratic objective terms
Variable types: 5878 continuous, 4768 integer (4768 binary)
Root relaxation presolve removed 4768 rows and 4768 columns
Root relaxation presolved: 11605 rows, 5878 columns, 115381 nonzeros
Root relaxation presolved model has 149 quadratic objective terms


Root relaxation: objective 2.908074e+01, 6603 iterations, 0.19 seconds (0.24 work units)

    Nodes    |    Current Node    |     Objective Bounds      |     Work
 Expl Unexpl |  Obj  Depth IntInf | Incumbent    BestBd   Gap | It/Node Time

     0     0      -    -    -      185.15525   29.08074  84.3%     -    0s
     0     0      -    -    -      181.97219   29.08074  84.0%     -    3s
     0     2      -    -    -       35.95748   29.08074  19.1%     -    6s
   907   923      -    -    -       34.71250   29.08074  16.2%     -   17s
  1019  1035      -    -    -       33.53501   29.08074  13.3%     -   25s
  2078  2094      -    -    -       33.51501   29.08074  13.2%     -   38s
  2960  3096      -    -    -       33.51501   29.08074  13.2%     -   40s
  3540  3694      -    -    -       33.51501   29.08074  13.2%     -   46s
  4946  5034      -    -    -       33.51501   29.08074  13.2%     -   50s
  7993  8349      -    -    -       33.51501   29.08074  13.2%     -   55s
  9931  9932      -    -    -       33.49741   29.08074  13.2%     -   73s
  9933  8964      -    -    -       33.49741   29.08074  13.2%     -   77s
  9935  8518      -    -    -       33.29621   29.08074  12.7%     -   89s
  9936  8521      -    -    -       33.29621   29.08074  12.7%     -   90s
  9965  8128      -    -    -       33.29621   29.08074  12.7%     -  101s
 10010  7369      -    -    -       33.24662   29.08074  12.5%     -  123s
 10916  7660      -    -    -       33.24662   29.08074  12.5%     -  125s
 11059  7704      -    -    -       33.12771   29.08074  12.2%     -  153s
 11849  7999      -    -    -       33.12771   29.08074  12.2%     -  155s
 14961  9963      -    -    -       33.12771   29.08074  12.2%     -  164s
 14983 10213      -    -    -       33.12771   29.08074  12.2%     -  165s
 19127 13101      -    -    -       33.12771   29.08074  12.2%     -  170s
 21690 14886      -    -    -       33.12771   29.08074  12.2%     -  176s
 22908 15752      -    -    -       33.12771   29.08074  12.2%     -  181s
 24958 16292      -    -    -       33.10925   29.08074  12.2%     -  205s
 24973 15753      -    -    -       33.10925   29.08074  12.2%     -  210s

Resetting heuristic parameters to focus on improving solution
(using Heuristics=0.5 and RINS=10)...

 25601 15738      -    -    -       32.73209   29.08074  11.2%     -  223s

Instance 0 was solved

Explored 25672 nodes (2133479 simplex iterations) in 224.14 seconds (442.76 work units)
Thread count was 15 (of 96 available processors)

Solution count 10: 32.5472 32.5484 32.5494 ... 33.1006 

Optimal solution found (tolerance 1.10e-01)
Best objective 3.254715257507e+01, best bound 2.908074240299e+01, gap 10.6504%
